 20 50 5
 1 2
 30 2
 3 46
 3 4
 1 4
 5 28
 5 6
 31 6
 7 69
 7 8
 39 8
 9 14
 9 10
 84 10
 11 59
 11 12
 10 12
 13  28
 13 14
 63 12
 15 9
 15 16
 100 16
 17 98
 17 18
 70 18
 19 94
 19 20
 22 20
 21 14
 21 22
 87 22
 23 82
 23 24
 55 24
 25 2
 25 26
 32 26
 27 77
 27 28
 95 28
 29 29
 29 30
 59 30
 31 91
 31 32
 89 32
 33 50
 33 34
 40 34
 35 88
 35 36
 94 36
 37 60
 37 38
 21 38
 39 89
 39 40
 47 40
 41 63
 41 42
 45 42
 43 46
 43 44
 24 44
 45 77
 45 46
 60 46
 47 45
 54 60
